(set-info :smt-lib-version 2.6)
(set-logic QF_NIA)
(set-info :source |
Generated by: Cristina Borralleras, Daniel Larraz, Albert Oliveras, Enric Rodriguez-Carbonell, Albert Rubio
Generated on: 2017-04-27
Generator: VeryMax
Application: Termination proving
Target solver: barcelogic
|)
(set-info :license "https://creativecommons.org/licenses/by/4.0/")
(set-info :category "industrial")
(set-info :status sat)
(declare-fun Nl2main_a1 () Int)
(declare-fun Nl2main_b1 () Int)
(declare-fun Nl2main_am1 () Int)
(declare-fun Nl2main_bm1 () Int)
(declare-fun Nl2main_a2 () Int)
(declare-fun Nl2main_b2 () Int)
(declare-fun Nl2main_am2 () Int)
(declare-fun Nl2main_bm2 () Int)
(declare-fun Nl2main_a3 () Int)
(declare-fun Nl2main_b3 () Int)
(declare-fun Nl2main_am3 () Int)
(declare-fun Nl2main_bm3 () Int)
(declare-fun lam0n0 () Int)
(declare-fun lam0n1 () Int)
(declare-fun lam0n2 () Int)
(declare-fun lam0n3 () Int)
(declare-fun Nl2CT1 () Int)
(declare-fun Nl2CT2 () Int)
(declare-fun Nl2CT3 () Int)
(declare-fun lam1n0 () Int)
(declare-fun lam1n1 () Int)
(declare-fun lam1n2 () Int)
(declare-fun lam1n3 () Int)
(declare-fun lam2n0 () Int)
(declare-fun lam2n1 () Int)
(declare-fun lam2n2 () Int)
(declare-fun lam2n3 () Int)
(declare-fun lam3n0 () Int)
(declare-fun lam3n1 () Int)
(declare-fun lam3n2 () Int)
(declare-fun lam3n3 () Int)
(declare-fun lam4n0 () Int)
(declare-fun lam4n1 () Int)
(declare-fun lam4n2 () Int)
(declare-fun lam4n3 () Int)
(declare-fun lam5n0 () Int)
(declare-fun lam5n1 () Int)
(declare-fun lam5n2 () Int)
(declare-fun lam5n3 () Int)
(declare-fun lam6n0 () Int)
(declare-fun lam6n1 () Int)
(declare-fun lam6n2 () Int)
(declare-fun lam6n3 () Int)
(declare-fun lam7n0 () Int)
(declare-fun lam7n1 () Int)
(declare-fun lam7n2 () Int)
(declare-fun lam7n3 () Int)
(declare-fun lam8n0 () Int)
(declare-fun lam8n1 () Int)
(declare-fun lam9n0 () Int)
(declare-fun lam9n1 () Int)
(declare-fun lam10n0 () Int)
(declare-fun lam10n1 () Int)
(declare-fun main_a () Int)
(declare-fun main_am () Int)
(declare-fun main_b () Int)
(declare-fun main_bm () Int)
(declare-fun lam14n0 () Int)
(declare-fun lam14n1 () Int)
(declare-fun lam14n2 () Int)
(declare-fun lam14n3 () Int)
(declare-fun RFN1_CT () Int)
(declare-fun RFN1_main_am () Int)
(declare-fun RFN1_main_a () Int)
(declare-fun RFN1_main_b () Int)
(declare-fun RFN1_main_bm () Int)
(declare-fun lam18n0 () Int)
(declare-fun lam18n1 () Int)
(declare-fun lam18n2 () Int)
(declare-fun lam18n3 () Int)
(declare-fun lam12n0 () Int)
(declare-fun lam12n1 () Int)
(declare-fun lam12n2 () Int)
(declare-fun lam12n3 () Int)
(declare-fun lam13n0 () Int)
(declare-fun lam13n1 () Int)
(declare-fun lam13n2 () Int)
(declare-fun lam13n3 () Int)
(declare-fun lam16n0 () Int)
(declare-fun lam16n1 () Int)
(declare-fun lam16n2 () Int)
(declare-fun lam16n3 () Int)
(declare-fun lam17n0 () Int)
(declare-fun lam17n1 () Int)
(declare-fun lam17n2 () Int)
(declare-fun lam17n3 () Int)
(declare-fun lam11n0 () Int)
(declare-fun lam11n1 () Int)
(declare-fun lam11n2 () Int)
(declare-fun lam11n3 () Int)
(declare-fun lam15n0 () Int)
(declare-fun lam15n1 () Int)
(declare-fun lam15n2 () Int)
(declare-fun lam15n3 () Int)
(assert ( and ( <= ( - 1 ) Nl2main_a1 ) ( <= Nl2main_a1 1 ) ( <= ( - 1 ) Nl2main_b1 ) ( <= Nl2main_b1 1 ) ( <= ( - 1 ) Nl2main_am1 ) ( <= Nl2main_am1 1 ) ( <= ( - 1 ) Nl2main_bm1 ) ( <= Nl2main_bm1 1 ) ( <= ( - 1 ) Nl2main_a2 ) ( <= Nl2main_a2 1 ) ( <= ( - 1 ) Nl2main_b2 ) ( <= Nl2main_b2 1 ) ( <= ( - 1 ) Nl2main_am2 ) ( <= Nl2main_am2 1 ) ( <= ( - 1 ) Nl2main_bm2 ) ( <= Nl2main_bm2 1 ) ( <= ( - 1 ) Nl2main_a3 ) ( <= Nl2main_a3 1 ) ( <= ( - 1 ) Nl2main_b3 ) ( <= Nl2main_b3 1 ) ( <= ( - 1 ) Nl2main_am3 ) ( <= Nl2main_am3 1 ) ( <= ( - 1 ) Nl2main_bm3 ) ( <= Nl2main_bm3 1 ) ))
(assert ( or ( and ( >= lam0n0 0 ) ( >= lam0n1 0 ) ( >= lam0n2 0 ) ( >= lam0n3 0 ) ( > ( + ( * 1 lam0n0 ) ( * Nl2CT1 lam0n1 ) ( * Nl2CT2 lam0n2 ) ( * Nl2CT3 lam0n3 ) ( - 1 ) ) 0 ) ( = ( + ( * Nl2main_a1 lam0n1 ) ( * Nl2main_a2 lam0n2 ) ( * Nl2main_a3 lam0n3 ) ) 0 ) ( = ( + ( * Nl2main_b1 lam0n1 ) ( * Nl2main_b2 lam0n2 ) ( * Nl2main_b3 lam0n3 ) ) 0 ) ( = ( + ( * 1 lam0n0 ) ( * Nl2main_am1 lam0n1 ) ( * Nl2main_am2 lam0n2 ) ( * Nl2main_am3 lam0n3 ) ) 0 ) ( = ( + ( * ( - 1 ) lam0n0 ) ( * Nl2main_bm1 lam0n1 ) ( * Nl2main_bm2 lam0n2 ) ( * Nl2main_bm3 lam0n3 ) ) 0 ) ) ( and ( >= lam1n0 0 ) ( >= lam1n1 0 ) ( >= lam1n2 0 ) ( >= lam1n3 0 ) ( > ( + ( * 1 lam1n0 ) ( * Nl2CT1 lam1n1 ) ( * Nl2CT2 lam1n2 ) ( * Nl2CT3 lam1n3 ) ( - 1 ( + Nl2CT1 ( * Nl2main_am1 0 ) ) ) ) 0 ) ( = ( + ( * Nl2main_a1 lam1n1 ) ( * Nl2main_a2 lam1n2 ) ( * Nl2main_a3 lam1n3 ) ( - ( + ( + 0 Nl2main_a1 ) ( * Nl2main_am1 1 ) ) ) ) 0 ) ( = ( + ( * Nl2main_b1 lam1n1 ) ( * Nl2main_b2 lam1n2 ) ( * Nl2main_b3 lam1n3 ) ( - ( + 0 Nl2main_b1 ) ) ) 0 ) ( = ( + ( * 1 lam1n0 ) ( * Nl2main_am1 lam1n1 ) ( * Nl2main_am2 lam1n2 ) ( * Nl2main_am3 lam1n3 ) ( - ( + 0 ( * Nl2main_am1 1 ) ) ) ) 0 ) ( = ( + ( * ( - 1 ) lam1n0 ) ( * Nl2main_bm1 lam1n1 ) ( * Nl2main_bm2 lam1n2 ) ( * Nl2main_bm3 lam1n3 ) ( - ( + 0 Nl2main_bm1 ) ) ) 0 ) ) ))
(assert ( or ( and ( >= lam0n0 0 ) ( >= lam0n1 0 ) ( >= lam0n2 0 ) ( >= lam0n3 0 ) ( > ( + ( * 1 lam0n0 ) ( * Nl2CT1 lam0n1 ) ( * Nl2CT2 lam0n2 ) ( * Nl2CT3 lam0n3 ) ( - 1 ) ) 0 ) ( = ( + ( * Nl2main_a1 lam0n1 ) ( * Nl2main_a2 lam0n2 ) ( * Nl2main_a3 lam0n3 ) ) 0 ) ( = ( + ( * Nl2main_b1 lam0n1 ) ( * Nl2main_b2 lam0n2 ) ( * Nl2main_b3 lam0n3 ) ) 0 ) ( = ( + ( * 1 lam0n0 ) ( * Nl2main_am1 lam0n1 ) ( * Nl2main_am2 lam0n2 ) ( * Nl2main_am3 lam0n3 ) ) 0 ) ( = ( + ( * ( - 1 ) lam0n0 ) ( * Nl2main_bm1 lam0n1 ) ( * Nl2main_bm2 lam0n2 ) ( * Nl2main_bm3 lam0n3 ) ) 0 ) ) ( and ( >= lam2n0 0 ) ( >= lam2n1 0 ) ( >= lam2n2 0 ) ( >= lam2n3 0 ) ( > ( + ( * 1 lam2n0 ) ( * Nl2CT1 lam2n1 ) ( * Nl2CT2 lam2n2 ) ( * Nl2CT3 lam2n3 ) ( - 1 ( + Nl2CT2 ( * Nl2main_am2 0 ) ) ) ) 0 ) ( = ( + ( * Nl2main_a1 lam2n1 ) ( * Nl2main_a2 lam2n2 ) ( * Nl2main_a3 lam2n3 ) ( - ( + ( + 0 Nl2main_a2 ) ( * Nl2main_am2 1 ) ) ) ) 0 ) ( = ( + ( * Nl2main_b1 lam2n1 ) ( * Nl2main_b2 lam2n2 ) ( * Nl2main_b3 lam2n3 ) ( - ( + 0 Nl2main_b2 ) ) ) 0 ) ( = ( + ( * 1 lam2n0 ) ( * Nl2main_am1 lam2n1 ) ( * Nl2main_am2 lam2n2 ) ( * Nl2main_am3 lam2n3 ) ( - ( + 0 ( * Nl2main_am2 1 ) ) ) ) 0 ) ( = ( + ( * ( - 1 ) lam2n0 ) ( * Nl2main_bm1 lam2n1 ) ( * Nl2main_bm2 lam2n2 ) ( * Nl2main_bm3 lam2n3 ) ( - ( + 0 Nl2main_bm2 ) ) ) 0 ) ) ))
(assert ( or ( and ( >= lam0n0 0 ) ( >= lam0n1 0 ) ( >= lam0n2 0 ) ( >= lam0n3 0 ) ( > ( + ( * 1 lam0n0 ) ( * Nl2CT1 lam0n1 ) ( * Nl2CT2 lam0n2 ) ( * Nl2CT3 lam0n3 ) ( - 1 ) ) 0 ) ( = ( + ( * Nl2main_a1 lam0n1 ) ( * Nl2main_a2 lam0n2 ) ( * Nl2main_a3 lam0n3 ) ) 0 ) ( = ( + ( * Nl2main_b1 lam0n1 ) ( * Nl2main_b2 lam0n2 ) ( * Nl2main_b3 lam0n3 ) ) 0 ) ( = ( + ( * 1 lam0n0 ) ( * Nl2main_am1 lam0n1 ) ( * Nl2main_am2 lam0n2 ) ( * Nl2main_am3 lam0n3 ) ) 0 ) ( = ( + ( * ( - 1 ) lam0n0 ) ( * Nl2main_bm1 lam0n1 ) ( * Nl2main_bm2 lam0n2 ) ( * Nl2main_bm3 lam0n3 ) ) 0 ) ) ( and ( >= lam3n0 0 ) ( >= lam3n1 0 ) ( >= lam3n2 0 ) ( >= lam3n3 0 ) ( > ( + ( * 1 lam3n0 ) ( * Nl2CT1 lam3n1 ) ( * Nl2CT2 lam3n2 ) ( * Nl2CT3 lam3n3 ) ( - 1 ( + Nl2CT3 ( * Nl2main_am3 0 ) ) ) ) 0 ) ( = ( + ( * Nl2main_a1 lam3n1 ) ( * Nl2main_a2 lam3n2 ) ( * Nl2main_a3 lam3n3 ) ( - ( + ( + 0 Nl2main_a3 ) ( * Nl2main_am3 1 ) ) ) ) 0 ) ( = ( + ( * Nl2main_b1 lam3n1 ) ( * Nl2main_b2 lam3n2 ) ( * Nl2main_b3 lam3n3 ) ( - ( + 0 Nl2main_b3 ) ) ) 0 ) ( = ( + ( * 1 lam3n0 ) ( * Nl2main_am1 lam3n1 ) ( * Nl2main_am2 lam3n2 ) ( * Nl2main_am3 lam3n3 ) ( - ( + 0 ( * Nl2main_am3 1 ) ) ) ) 0 ) ( = ( + ( * ( - 1 ) lam3n0 ) ( * Nl2main_bm1 lam3n1 ) ( * Nl2main_bm2 lam3n2 ) ( * Nl2main_bm3 lam3n3 ) ( - ( + 0 Nl2main_bm3 ) ) ) 0 ) ) ))
(assert ( or ( and ( >= lam4n0 0 ) ( >= lam4n1 0 ) ( >= lam4n2 0 ) ( >= lam4n3 0 ) ( > ( + ( * 1 lam4n0 ) ( * Nl2CT1 lam4n1 ) ( * Nl2CT2 lam4n2 ) ( * Nl2CT3 lam4n3 ) ( - 1 ) ) 0 ) ( = ( + ( * Nl2main_a1 lam4n1 ) ( * Nl2main_a2 lam4n2 ) ( * Nl2main_a3 lam4n3 ) ) 0 ) ( = ( + ( * Nl2main_b1 lam4n1 ) ( * Nl2main_b2 lam4n2 ) ( * Nl2main_b3 lam4n3 ) ) 0 ) ( = ( + ( * ( - 1 ) lam4n0 ) ( * Nl2main_am1 lam4n1 ) ( * Nl2main_am2 lam4n2 ) ( * Nl2main_am3 lam4n3 ) ) 0 ) ( = ( + ( * 1 lam4n0 ) ( * Nl2main_bm1 lam4n1 ) ( * Nl2main_bm2 lam4n2 ) ( * Nl2main_bm3 lam4n3 ) ) 0 ) ) ( and ( >= lam5n0 0 ) ( >= lam5n1 0 ) ( >= lam5n2 0 ) ( >= lam5n3 0 ) ( > ( + ( * 1 lam5n0 ) ( * Nl2CT1 lam5n1 ) ( * Nl2CT2 lam5n2 ) ( * Nl2CT3 lam5n3 ) ( - 1 ( + Nl2CT1 ( * Nl2main_bm1 0 ) ) ) ) 0 ) ( = ( + ( * Nl2main_a1 lam5n1 ) ( * Nl2main_a2 lam5n2 ) ( * Nl2main_a3 lam5n3 ) ( - ( + 0 Nl2main_a1 ) ) ) 0 ) ( = ( + ( * Nl2main_b1 lam5n1 ) ( * Nl2main_b2 lam5n2 ) ( * Nl2main_b3 lam5n3 ) ( - ( + ( + 0 Nl2main_b1 ) ( * Nl2main_bm1 1 ) ) ) ) 0 ) ( = ( + ( * ( - 1 ) lam5n0 ) ( * Nl2main_am1 lam5n1 ) ( * Nl2main_am2 lam5n2 ) ( * Nl2main_am3 lam5n3 ) ( - ( + 0 Nl2main_am1 ) ) ) 0 ) ( = ( + ( * 1 lam5n0 ) ( * Nl2main_bm1 lam5n1 ) ( * Nl2main_bm2 lam5n2 ) ( * Nl2main_bm3 lam5n3 ) ( - ( + 0 ( * Nl2main_bm1 1 ) ) ) ) 0 ) ) ))
(assert ( or ( and ( >= lam4n0 0 ) ( >= lam4n1 0 ) ( >= lam4n2 0 ) ( >= lam4n3 0 ) ( > ( + ( * 1 lam4n0 ) ( * Nl2CT1 lam4n1 ) ( * Nl2CT2 lam4n2 ) ( * Nl2CT3 lam4n3 ) ( - 1 ) ) 0 ) ( = ( + ( * Nl2main_a1 lam4n1 ) ( * Nl2main_a2 lam4n2 ) ( * Nl2main_a3 lam4n3 ) ) 0 ) ( = ( + ( * Nl2main_b1 lam4n1 ) ( * Nl2main_b2 lam4n2 ) ( * Nl2main_b3 lam4n3 ) ) 0 ) ( = ( + ( * ( - 1 ) lam4n0 ) ( * Nl2main_am1 lam4n1 ) ( * Nl2main_am2 lam4n2 ) ( * Nl2main_am3 lam4n3 ) ) 0 ) ( = ( + ( * 1 lam4n0 ) ( * Nl2main_bm1 lam4n1 ) ( * Nl2main_bm2 lam4n2 ) ( * Nl2main_bm3 lam4n3 ) ) 0 ) ) ( and ( >= lam6n0 0 ) ( >= lam6n1 0 ) ( >= lam6n2 0 ) ( >= lam6n3 0 ) ( > ( + ( * 1 lam6n0 ) ( * Nl2CT1 lam6n1 ) ( * Nl2CT2 lam6n2 ) ( * Nl2CT3 lam6n3 ) ( - 1 ( + Nl2CT2 ( * Nl2main_bm2 0 ) ) ) ) 0 ) ( = ( + ( * Nl2main_a1 lam6n1 ) ( * Nl2main_a2 lam6n2 ) ( * Nl2main_a3 lam6n3 ) ( - ( + 0 Nl2main_a2 ) ) ) 0 ) ( = ( + ( * Nl2main_b1 lam6n1 ) ( * Nl2main_b2 lam6n2 ) ( * Nl2main_b3 lam6n3 ) ( - ( + ( + 0 Nl2main_b2 ) ( * Nl2main_bm2 1 ) ) ) ) 0 ) ( = ( + ( * ( - 1 ) lam6n0 ) ( * Nl2main_am1 lam6n1 ) ( * Nl2main_am2 lam6n2 ) ( * Nl2main_am3 lam6n3 ) ( - ( + 0 Nl2main_am2 ) ) ) 0 ) ( = ( + ( * 1 lam6n0 ) ( * Nl2main_bm1 lam6n1 ) ( * Nl2main_bm2 lam6n2 ) ( * Nl2main_bm3 lam6n3 ) ( - ( + 0 ( * Nl2main_bm2 1 ) ) ) ) 0 ) ) ))
(assert ( or ( and ( >= lam4n0 0 ) ( >= lam4n1 0 ) ( >= lam4n2 0 ) ( >= lam4n3 0 ) ( > ( + ( * 1 lam4n0 ) ( * Nl2CT1 lam4n1 ) ( * Nl2CT2 lam4n2 ) ( * Nl2CT3 lam4n3 ) ( - 1 ) ) 0 ) ( = ( + ( * Nl2main_a1 lam4n1 ) ( * Nl2main_a2 lam4n2 ) ( * Nl2main_a3 lam4n3 ) ) 0 ) ( = ( + ( * Nl2main_b1 lam4n1 ) ( * Nl2main_b2 lam4n2 ) ( * Nl2main_b3 lam4n3 ) ) 0 ) ( = ( + ( * ( - 1 ) lam4n0 ) ( * Nl2main_am1 lam4n1 ) ( * Nl2main_am2 lam4n2 ) ( * Nl2main_am3 lam4n3 ) ) 0 ) ( = ( + ( * 1 lam4n0 ) ( * Nl2main_bm1 lam4n1 ) ( * Nl2main_bm2 lam4n2 ) ( * Nl2main_bm3 lam4n3 ) ) 0 ) ) ( and ( >= lam7n0 0 ) ( >= lam7n1 0 ) ( >= lam7n2 0 ) ( >= lam7n3 0 ) ( > ( + ( * 1 lam7n0 ) ( * Nl2CT1 lam7n1 ) ( * Nl2CT2 lam7n2 ) ( * Nl2CT3 lam7n3 ) ( - 1 ( + Nl2CT3 ( * Nl2main_bm3 0 ) ) ) ) 0 ) ( = ( + ( * Nl2main_a1 lam7n1 ) ( * Nl2main_a2 lam7n2 ) ( * Nl2main_a3 lam7n3 ) ( - ( + 0 Nl2main_a3 ) ) ) 0 ) ( = ( + ( * Nl2main_b1 lam7n1 ) ( * Nl2main_b2 lam7n2 ) ( * Nl2main_b3 lam7n3 ) ( - ( + ( + 0 Nl2main_b3 ) ( * Nl2main_bm3 1 ) ) ) ) 0 ) ( = ( + ( * ( - 1 ) lam7n0 ) ( * Nl2main_am1 lam7n1 ) ( * Nl2main_am2 lam7n2 ) ( * Nl2main_am3 lam7n3 ) ( - ( + 0 Nl2main_am3 ) ) ) 0 ) ( = ( + ( * 1 lam7n0 ) ( * Nl2main_bm1 lam7n1 ) ( * Nl2main_bm2 lam7n2 ) ( * Nl2main_bm3 lam7n3 ) ( - ( + 0 ( * Nl2main_bm3 1 ) ) ) ) 0 ) ) ))
(assert ( and ( = ( + main_a ( * ( - 1 ) main_am ) ) 0 ) ( = ( + main_b ( * ( - 1 ) main_bm ) ) 0 ) ( <= ( + Nl2CT1 ( * ( + 0 Nl2main_a1 ) main_a ) ( * ( + 0 Nl2main_b1 ) main_b ) ( * ( + 0 Nl2main_am1 ) main_am ) ( * ( + 0 Nl2main_bm1 ) main_bm ) ) 0 ) ( <= ( + Nl2CT2 ( * ( + 0 Nl2main_a2 ) main_a ) ( * ( + 0 Nl2main_b2 ) main_b ) ( * ( + 0 Nl2main_am2 ) main_am ) ( * ( + 0 Nl2main_bm2 ) main_bm ) ) 0 ) ( <= ( + Nl2CT3 ( * ( + 0 Nl2main_a3 ) main_a ) ( * ( + 0 Nl2main_b3 ) main_b ) ( * ( + 0 Nl2main_am3 ) main_am ) ( * ( + 0 Nl2main_bm3 ) main_bm ) ) 0 ) ))
(assert ( or ( and ( and ( and ( >= lam14n0 0 ) ( >= lam14n1 0 ) ( >= lam14n2 0 ) ( >= lam14n3 0 ) ( > ( + ( * 1 lam14n0 ) ( * Nl2CT1 lam14n1 ) ( * Nl2CT2 lam14n2 ) ( * Nl2CT3 lam14n3 ) ( - 1 ( - ( + RFN1_CT ( * RFN1_main_am 0 ) ) RFN1_CT ) ) ) 0 ) ( = ( + ( * Nl2main_a1 lam14n1 ) ( * Nl2main_a2 lam14n2 ) ( * Nl2main_a3 lam14n3 ) ( - ( - ( + ( + 0 RFN1_main_a ) ( * RFN1_main_am 1 ) ) RFN1_main_a ) ) ) 0 ) ( = ( + ( * Nl2main_b1 lam14n1 ) ( * Nl2main_b2 lam14n2 ) ( * Nl2main_b3 lam14n3 ) ( - ( - ( + 0 RFN1_main_b ) RFN1_main_b ) ) ) 0 ) ( = ( + ( * 1 lam14n0 ) ( * Nl2main_am1 lam14n1 ) ( * Nl2main_am2 lam14n2 ) ( * Nl2main_am3 lam14n3 ) ( - ( - ( + 0 ( * RFN1_main_am 1 ) ) RFN1_main_am ) ) ) 0 ) ( = ( + ( * ( - 1 ) lam14n0 ) ( * Nl2main_bm1 lam14n1 ) ( * Nl2main_bm2 lam14n2 ) ( * Nl2main_bm3 lam14n3 ) ( - ( - ( + 0 RFN1_main_bm ) RFN1_main_bm ) ) ) 0 ) ) ( and ( >= lam18n0 0 ) ( >= lam18n1 0 ) ( >= lam18n2 0 ) ( >= lam18n3 0 ) ( > ( + ( * 1 lam18n0 ) ( * Nl2CT1 lam18n1 ) ( * Nl2CT2 lam18n2 ) ( * Nl2CT3 lam18n3 ) ( - 1 ( - ( + RFN1_CT ( * RFN1_main_bm 0 ) ) RFN1_CT ) ) ) 0 ) ( = ( + ( * Nl2main_a1 lam18n1 ) ( * Nl2main_a2 lam18n2 ) ( * Nl2main_a3 lam18n3 ) ( - ( - ( + 0 RFN1_main_a ) RFN1_main_a ) ) ) 0 ) ( = ( + ( * Nl2main_b1 lam18n1 ) ( * Nl2main_b2 lam18n2 ) ( * Nl2main_b3 lam18n3 ) ( - ( - ( + ( + 0 RFN1_main_b ) ( * RFN1_main_bm 1 ) ) RFN1_main_b ) ) ) 0 ) ( = ( + ( * ( - 1 ) lam18n0 ) ( * Nl2main_am1 lam18n1 ) ( * Nl2main_am2 lam18n2 ) ( * Nl2main_am3 lam18n3 ) ( - ( - ( + 0 RFN1_main_am ) RFN1_main_am ) ) ) 0 ) ( = ( + ( * 1 lam18n0 ) ( * Nl2main_bm1 lam18n1 ) ( * Nl2main_bm2 lam18n2 ) ( * Nl2main_bm3 lam18n3 ) ( - ( - ( + 0 ( * RFN1_main_bm 1 ) ) RFN1_main_bm ) ) ) 0 ) ) ) ( or ( and ( and ( >= lam12n0 0 ) ( >= lam12n1 0 ) ( >= lam12n2 0 ) ( >= lam12n3 0 ) ( > ( + ( * 1 lam12n0 ) ( * Nl2CT1 lam12n1 ) ( * Nl2CT2 lam12n2 ) ( * Nl2CT3 lam12n3 ) ( - 1 ( - RFN1_CT ) ) ) 0 ) ( = ( + ( * Nl2main_a1 lam12n1 ) ( * Nl2main_a2 lam12n2 ) ( * Nl2main_a3 lam12n3 ) ( - ( - RFN1_main_a ) ) ) 0 ) ( = ( + ( * Nl2main_b1 lam12n1 ) ( * Nl2main_b2 lam12n2 ) ( * Nl2main_b3 lam12n3 ) ( - ( - RFN1_main_b ) ) ) 0 ) ( = ( + ( * 1 lam12n0 ) ( * Nl2main_am1 lam12n1 ) ( * Nl2main_am2 lam12n2 ) ( * Nl2main_am3 lam12n3 ) ( - ( - RFN1_main_am ) ) ) 0 ) ( = ( + ( * ( - 1 ) lam12n0 ) ( * Nl2main_bm1 lam12n1 ) ( * Nl2main_bm2 lam12n2 ) ( * Nl2main_bm3 lam12n3 ) ( - ( - RFN1_main_bm ) ) ) 0 ) ) ( and ( >= lam13n0 0 ) ( >= lam13n1 0 ) ( >= lam13n2 0 ) ( >= lam13n3 0 ) ( > ( + ( * 1 lam13n0 ) ( * Nl2CT1 lam13n1 ) ( * Nl2CT2 lam13n2 ) ( * Nl2CT3 lam13n3 ) ( - 1 ( + ( - ( + RFN1_CT ( * RFN1_main_am 0 ) ) RFN1_CT ) 1 ) ) ) 0 ) ( = ( + ( * Nl2main_a1 lam13n1 ) ( * Nl2main_a2 lam13n2 ) ( * Nl2main_a3 lam13n3 ) ( - ( - ( + ( + 0 RFN1_main_a ) ( * RFN1_main_am 1 ) ) RFN1_main_a ) ) ) 0 ) ( = ( + ( * Nl2main_b1 lam13n1 ) ( * Nl2main_b2 lam13n2 ) ( * Nl2main_b3 lam13n3 ) ( - ( - ( + 0 RFN1_main_b ) RFN1_main_b ) ) ) 0 ) ( = ( + ( * 1 lam13n0 ) ( * Nl2main_am1 lam13n1 ) ( * Nl2main_am2 lam13n2 ) ( * Nl2main_am3 lam13n3 ) ( - ( - ( + 0 ( * RFN1_main_am 1 ) ) RFN1_main_am ) ) ) 0 ) ( = ( + ( * ( - 1 ) lam13n0 ) ( * Nl2main_bm1 lam13n1 ) ( * Nl2main_bm2 lam13n2 ) ( * Nl2main_bm3 lam13n3 ) ( - ( - ( + 0 RFN1_main_bm ) RFN1_main_bm ) ) ) 0 ) ) ) ( and ( and ( >= lam16n0 0 ) ( >= lam16n1 0 ) ( >= lam16n2 0 ) ( >= lam16n3 0 ) ( > ( + ( * 1 lam16n0 ) ( * Nl2CT1 lam16n1 ) ( * Nl2CT2 lam16n2 ) ( * Nl2CT3 lam16n3 ) ( - 1 ( - RFN1_CT ) ) ) 0 ) ( = ( + ( * Nl2main_a1 lam16n1 ) ( * Nl2main_a2 lam16n2 ) ( * Nl2main_a3 lam16n3 ) ( - ( - RFN1_main_a ) ) ) 0 ) ( = ( + ( * Nl2main_b1 lam16n1 ) ( * Nl2main_b2 lam16n2 ) ( * Nl2main_b3 lam16n3 ) ( - ( - RFN1_main_b ) ) ) 0 ) ( = ( + ( * ( - 1 ) lam16n0 ) ( * Nl2main_am1 lam16n1 ) ( * Nl2main_am2 lam16n2 ) ( * Nl2main_am3 lam16n3 ) ( - ( - RFN1_main_am ) ) ) 0 ) ( = ( + ( * 1 lam16n0 ) ( * Nl2main_bm1 lam16n1 ) ( * Nl2main_bm2 lam16n2 ) ( * Nl2main_bm3 lam16n3 ) ( - ( - RFN1_main_bm ) ) ) 0 ) ) ( and ( >= lam17n0 0 ) ( >= lam17n1 0 ) ( >= lam17n2 0 ) ( >= lam17n3 0 ) ( > ( + ( * 1 lam17n0 ) ( * Nl2CT1 lam17n1 ) ( * Nl2CT2 lam17n2 ) ( * Nl2CT3 lam17n3 ) ( - 1 ( + ( - ( + RFN1_CT ( * RFN1_main_bm 0 ) ) RFN1_CT ) 1 ) ) ) 0 ) ( = ( + ( * Nl2main_a1 lam17n1 ) ( * Nl2main_a2 lam17n2 ) ( * Nl2main_a3 lam17n3 ) ( - ( - ( + 0 RFN1_main_a ) RFN1_main_a ) ) ) 0 ) ( = ( + ( * Nl2main_b1 lam17n1 ) ( * Nl2main_b2 lam17n2 ) ( * Nl2main_b3 lam17n3 ) ( - ( - ( + ( + 0 RFN1_main_b ) ( * RFN1_main_bm 1 ) ) RFN1_main_b ) ) ) 0 ) ( = ( + ( * ( - 1 ) lam17n0 ) ( * Nl2main_am1 lam17n1 ) ( * Nl2main_am2 lam17n2 ) ( * Nl2main_am3 lam17n3 ) ( - ( - ( + 0 RFN1_main_am ) RFN1_main_am ) ) ) 0 ) ( = ( + ( * 1 lam17n0 ) ( * Nl2main_bm1 lam17n1 ) ( * Nl2main_bm2 lam17n2 ) ( * Nl2main_bm3 lam17n3 ) ( - ( - ( + 0 ( * RFN1_main_bm 1 ) ) RFN1_main_bm ) ) ) 0 ) ) ) ) ) ( or ( and ( >= lam11n0 0 ) ( >= lam11n1 0 ) ( >= lam11n2 0 ) ( >= lam11n3 0 ) ( > ( + ( * 1 lam11n0 ) ( * Nl2CT1 lam11n1 ) ( * Nl2CT2 lam11n2 ) ( * Nl2CT3 lam11n3 ) ( - 1 ) ) 0 ) ( = ( + ( * Nl2main_a1 lam11n1 ) ( * Nl2main_a2 lam11n2 ) ( * Nl2main_a3 lam11n3 ) ) 0 ) ( = ( + ( * Nl2main_b1 lam11n1 ) ( * Nl2main_b2 lam11n2 ) ( * Nl2main_b3 lam11n3 ) ) 0 ) ( = ( + ( * 1 lam11n0 ) ( * Nl2main_am1 lam11n1 ) ( * Nl2main_am2 lam11n2 ) ( * Nl2main_am3 lam11n3 ) ) 0 ) ( = ( + ( * ( - 1 ) lam11n0 ) ( * Nl2main_bm1 lam11n1 ) ( * Nl2main_bm2 lam11n2 ) ( * Nl2main_bm3 lam11n3 ) ) 0 ) ) ( and ( >= lam15n0 0 ) ( >= lam15n1 0 ) ( >= lam15n2 0 ) ( >= lam15n3 0 ) ( > ( + ( * 1 lam15n0 ) ( * Nl2CT1 lam15n1 ) ( * Nl2CT2 lam15n2 ) ( * Nl2CT3 lam15n3 ) ( - 1 ) ) 0 ) ( = ( + ( * Nl2main_a1 lam15n1 ) ( * Nl2main_a2 lam15n2 ) ( * Nl2main_a3 lam15n3 ) ) 0 ) ( = ( + ( * Nl2main_b1 lam15n1 ) ( * Nl2main_b2 lam15n2 ) ( * Nl2main_b3 lam15n3 ) ) 0 ) ( = ( + ( * ( - 1 ) lam15n0 ) ( * Nl2main_am1 lam15n1 ) ( * Nl2main_am2 lam15n2 ) ( * Nl2main_am3 lam15n3 ) ) 0 ) ( = ( + ( * 1 lam15n0 ) ( * Nl2main_bm1 lam15n1 ) ( * Nl2main_bm2 lam15n2 ) ( * Nl2main_bm3 lam15n3 ) ) 0 ) ) ) ))
(check-sat)
(exit)
